Read MPS format model from file dat/rmp/4node_2048_20.mps
Reading time = 0.09 seconds
: 2108 rows, 10376 columns, 260082 nonzeros
Gurobi Optimizer version 9.0.0 build v9.0.0rc2 (linux64)
Optimize a model with 2108 rows, 10376 columns and 260082 nonzeros
Model fingerprint: 0xa2084505
Coefficient statistics:
  Matrix range     [3e-03, 2e+01]
  Objective range  [3e-02, 1e+04]
  Bounds range     [0e+00, 0e+00]
  RHS range        [1e+00, 8e+01]
Ordering time: 0.00s

Barrier statistics:
 AA' NZ     : 9.883e+04
 Factor NZ  : 1.218e+05 (roughly 6 MBytes of memory)
 Factor Ops : 7.605e+06 (less than 1 second per iteration)
 Threads    : 1

                  Objective                Residual
Iter       Primal          Dual         Primal    Dual     Compl     Time
   0   2.57915187e+07  0.00000000e+00  1.44e+04 4.80e+02  6.29e+04     0s
   1   1.27891393e+06 -1.93511313e+07  6.70e+02 2.97e+03  5.21e+03     0s
   2   3.90652734e+05 -1.43366433e+07  1.91e+02 2.10e+03  2.53e+03     0s
   3   1.44407359e+05 -8.41540287e+06  5.10e+01 1.01e+03  1.20e+03     0s
   4   5.69845046e+04 -1.01419478e+06  2.31e-10 7.62e+01  1.26e+02     0s
   5   3.51281681e+04 -3.74945179e+05  4.68e-10 2.79e+01  4.71e+01     0s
   6   2.26578939e+04 -8.32235612e+04  2.30e-10 5.27e+00  1.16e+01     0s
   7   7.61919766e+03 -3.24433992e+04  1.22e-10 1.94e+00  4.40e+00     0s
   8   3.37101737e+03 -1.34658165e+04  6.94e-11 7.04e-01  1.80e+00     0s
   9   1.42554084e+02 -3.90937908e+03  1.37e-09 9.53e-02  4.14e-01     0s
  10   8.78120554e+00 -1.73821702e+03  1.00e-09 2.10e-02  1.74e-01     0s
  11  -2.26578912e+02 -6.04120915e+02  1.91e-09 3.20e-03  3.73e-02     0s
  12  -3.38195693e+02 -4.86042992e+02  6.12e-10 7.02e-04  1.45e-02     0s
  13  -3.94567541e+02 -4.43350985e+02  7.36e-09 6.99e-05  4.72e-03     0s
  14  -4.21119920e+02 -4.35508152e+02  2.34e-08 2.02e-05  1.39e-03     0s
  15  -4.29864869e+02 -4.34134613e+02  1.22e-07 4.16e-06  4.14e-04     0s
  16  -4.30944809e+02 -4.33391014e+02  8.20e-08 8.08e-07  2.36e-04     0s
  17  -4.31797753e+02 -4.33258856e+02  8.39e-08 4.88e-07  1.41e-04     0s
  18  -4.32491122e+02 -4.33225035e+02  1.00e-07 3.88e-07  7.10e-05     0s
  19  -4.32852654e+02 -4.33098118e+02  5.41e-07 5.16e-08  2.37e-05     0s
  20  -4.33001261e+02 -4.33078648e+02  1.24e-07 1.91e-08  7.48e-06     0s
  21  -4.33043517e+02 -4.33065012e+02  3.64e-07 3.35e-09  2.07e-06     0s
  22  -4.33048314e+02 -4.33061892e+02  6.00e-07 4.65e-10  1.31e-06     0s
  23  -4.33056292e+02 -4.33061071e+02  2.57e-07 1.52e-10  4.59e-07     0s
  24  -4.33059054e+02 -4.33060868e+02  1.87e-07 2.91e-11  1.74e-07     0s
  25  -4.33059741e+02 -4.33060773e+02  1.01e-07 2.91e-11  9.92e-08     1s
  26  -4.33059892e+02 -4.33060719e+02  6.49e-07 2.91e-11  8.10e-08     1s
  27  -4.33059954e+02 -4.33060713e+02  6.38e-07 2.91e-11  7.53e-08     1s
  28  -4.33060156e+02 -4.33060693e+02  1.04e-06 2.91e-11  5.21e-08     1s
  29  -4.33060591e+02 -4.33060679e+02  6.14e-07 5.82e-11  9.43e-09     1s
  30  -4.33060599e+02 -4.33060678e+02  9.69e-07 5.82e-11  8.84e-09     1s
  31  -4.33060633e+02 -4.33060677e+02  1.82e-06 2.91e-11  3.95e-09     1s
  32  -4.33060613e+02 -4.33060674e+02  1.68e-06 2.91e-11  1.57e-09     1s
  33  -4.33060600e+02 -4.33060674e+02  3.05e-06 2.91e-11  1.15e-09     1s
  34  -4.33060671e+02 -4.33060673e+02  5.01e-06 2.91e-11  8.52e-10     1s
  35  -4.33060708e+02 -4.33060673e+02  7.90e-06 2.91e-11  4.18e-10     1s
  36  -4.33060678e+02 -4.33060673e+02  5.14e-06 5.82e-11  4.38e-13     1s
  37  -4.33060815e+02 -4.33060673e+02  3.16e-06 5.82e-11  2.26e-13     1s
  38  -4.33060841e+02 -4.33060673e+02  6.41e-06 2.91e-11  1.37e-13     1s
  39  -4.33060892e+02 -4.33060673e+02  1.50e-05 2.91e-11  1.23e-13     1s
  40  -4.33060905e+02 -4.33060673e+02  1.45e-05 2.91e-11  7.18e-16     1s
  41  -4.33060708e+02 -4.33060673e+02  1.12e-05 2.91e-11  4.12e-16     1s
  42  -4.33060689e+02 -4.33060673e+02  1.46e-05 2.91e-11  4.14e-19     1s

Barrier performed 42 iterations in 0.81 seconds
Sub-optimal termination - objective -4.33059741e+02

Solve time: 0.806197442
Barrier iterations: 42
